;; ===================== PROJECTED CANON (QE) =====================
;; Each clause below is entailed by Proj = ∃W.F over the canonical vocabulary.
;; Units appear first for clarity; OR-clauses (SAT-filtered) follow.
;; ==================================================================

;; Unit Bool constraints (entailed)
(assert (not patient_has_undergone_destructive_procedure_on_brain_inthehistory))
(assert (not patient_has_finding_of_encephalitis_inthehistory))
(assert (not patient_has_finding_of_major_head_injury_inthehistory))
(assert (not patient_has_undergone_neurostimulation_procedure_inthehistory))
(assert (not patient_has_finding_of_dementia_now))
